14
WS2_MoS2_heterostructure
 W   -0.000016    1.824436    3.125000
 S    1.580016    0.912204    1.550000
 S    1.580016    0.912204    4.700000
Mo   -0.000016    1.824436    9.375000
 S    1.580016    0.912204    7.800000
 S    1.580016    0.912204   10.950000
 S   -1.579984    0.912204    1.550000
 S   -1.579984    0.912204    4.700000
 S    0.000016    3.648845    1.550000
 S    0.000016    3.648845    4.700000
 S   -1.579984    0.912204    7.800000
 S   -1.579984    0.912204   10.950000
 S    0.000016    3.648845    7.800000
 S    0.000016    3.648845   10.950000
