Mo   W  S  
   1.0000000000000000  
          14.206500000      -8.202126599       0.000000000
          0.000000000      16.404253198       0.000000000
          0.000000000       0.000000000      24.000000000
  Mo   W  S
  27 27  108 
Direct
   -0.003564726       0.104210902       0.374201563    1 
    0.214993647       0.216170419       0.374885986    1 
    0.102804159      -0.004480986       0.373598688    1 
   -0.000673897       0.439036752       0.376924994    1 
    0.223363459       0.555178999       0.373360426    1 
    0.110284926       0.332622204       0.374570495    1 
   -0.001771956       0.778866360       0.373113808    1 
    0.218166923       0.887145263       0.374139082    1 
    0.109311329       0.664963800       0.375500044    1 
    0.333061450       0.113800042       0.375054393    1 
    0.559113635       0.223190858       0.371183542    1 
    0.445331320      -0.001436141       0.372911599    1 
    0.332449611       0.442607524       0.373208773    1 
    0.554337041       0.554583365       0.373976762    1 
    0.440837540       0.329445227       0.375722309    1 
    0.331229837       0.777060406       0.374588444    1 
    0.549371829       0.883170468       0.372414254    1 
    0.440769956       0.664884357       0.374115149    1 
    0.665273029       0.110529427       0.375326597    1 
    0.886951530       0.221742921       0.374452515    1 
    0.773596908      -0.000087028       0.375763778    1 
    0.665002549       0.445120019       0.377603210    1 
    0.886496869       0.550570169       0.374086175    1 
    0.769007317       0.326087862       0.375261490    1 
    0.664629778       0.780926220       0.375758736    1 
    0.886087816       0.886271355       0.374147117    1 
    0.774350666       0.668872605       0.374596102    1 
    0.112535405       0.109406808       0.623581943    2 
    0.004916345       0.218178460       0.622673764    2 
    0.227149989       0.334657571       0.624277308    2 
    0.114426691       0.443349543       0.625515367    2 
    0.002915615       0.557394321       0.626207607    2 
    0.219611083       0.662804545       0.623364219    2 
    0.116989442       0.779187784       0.626885992    2 
    0.008339148       0.887933720       0.625444059    2 
    0.227324511       1.000469737       0.625207897    2 
    0.446094904       0.111610261       0.625694579    2 
    0.338032214       0.221393468       0.622657813    2 
    0.558586044       0.330041577       0.625752339    2 
    0.450501433       0.445271749       0.627590034    2 
    0.340030272       0.555098338       0.628204771    2 
    0.564708837       0.669889616       0.627669734    2 
    0.448973189       0.781521016       0.624974809    2 
    0.338349783       0.889557359       0.625654120    2 
    0.560241656       1.002353884       0.625011277    2 
    0.781135703       0.112594574       0.621053749    2 
    0.674797533       0.225565171       0.622641086    2 
    0.894704691       0.337974462       0.625040940    2 
    0.779204661       0.444029466       0.627320637    2 
    0.670956166       0.554680383       0.629807900    2 
    0.894123559       0.668621078       0.627810221    2 
    0.785937519       0.778502084       0.622308899    2 
    0.670019550       0.891043556       0.622704424    2 
    0.889990340       0.994377278       0.621338551    2 
    0.102727468       0.103342374       0.440809674    3 
    0.103171449       0.103159037       0.307396521    3 
    0.002016089       0.108536969       0.689800880    3 
    0.008141307       0.107785790       0.553414699    3 
    0.003023985       0.219284752       0.442575953    3 
   -0.002447361       0.223122551       0.310713739    3 
    0.225330188       0.222458607       0.689054479    3 
    0.226732984       0.223813408       0.557167203    3 
    0.221087127       0.335032118       0.440409451    3 
    0.223995727       0.333949152       0.308023436    3 
    0.114288790       0.001214135       0.686458941    3 
    0.116476976       0.001382195       0.556820341    3 
    0.112286548       0.439252037       0.442844994    3 
    0.110187374       0.444093520       0.311146693    3 
    0.004409058       0.444971426       0.691136885    3 
    0.005541352       0.446159729       0.558927314    3 
    0.000279134       0.545429520       0.442857557    3 
    0.000150503       0.549808695       0.306613944    3 
    0.224371166       0.548092309       0.691531476    3 
    0.227853868       0.550725108       0.560433071    3 
    0.222443577       0.668296713       0.439406565    3 
    0.216698282       0.662884184       0.306166499    3 
    0.111497105       0.327405031       0.687193549    3 
    0.114863191       0.327099636       0.556949148    3 
    0.109940909       0.777612048       0.437946371    3 
    0.106098702       0.775076373       0.307523013    3 
    0.004746380       0.781357384       0.694288035    3 
   -0.001521957       0.772527284       0.564446994    3 
   -0.004928905       0.884772459       0.436602698    3 
   -0.007534378       0.888071620       0.304255443    3 
    0.228753513       0.894184763       0.695081723    3 
    0.231275043       0.892549089       0.559838465    3 
    0.217918838       1.000337255       0.439033155    3 
    0.214671906       0.997965796       0.309348964    3 
    0.111348037       0.669320009       0.694245975    3 
    0.109505243       0.666186470       0.557934987    3 
    0.442376090       0.109419681       0.439058045    3 
    0.447663723       0.111716789       0.306846605    3 
    0.347777003       0.123043284       0.693918167    3 
    0.339666984       0.112999715       0.554136244    3 
    0.328620738       0.223758675       0.444158216    3 
    0.331458361       0.220069684       0.311738372    3 
    0.560336102       0.219905247       0.692216512    3 
    0.564665975       0.228857774       0.558020559    3 
    0.553063873       0.327952457       0.440849022    3 
    0.550391664       0.332469028       0.308581160    3 
    0.444507646      -0.004431417       0.692585684    3 
    0.443032412      -0.003078874       0.559896843    3 
    0.445325637       0.445428430       0.439407234    3 
    0.444011511       0.439864891       0.305242020    3 
    0.338763880       0.446595622       0.693897407    3 
    0.343029846       0.447101616       0.559702638    3 
    0.333970958       0.554712100       0.435797758    3 
    0.328920348       0.548449587       0.307079723    3 
    0.558359125       0.553963753       0.697759116    3 
    0.565257016       0.555099794       0.560520856    3 
    0.551687049       0.668007761       0.441119671    3 
    0.546120220       0.663543115       0.307989579    3 
    0.448543853       0.331165949       0.693392553    3 
    0.448000880       0.334994316       0.557941239    3 
    0.439439942       0.776067384       0.440769628    3 
    0.436345317       0.769767868       0.306907635    3 
    0.326206262       0.774325810       0.690350336    3 
    0.331106562       0.772936723       0.560384185    3 
    0.329619287       0.887790907       0.440641882    3 
    0.330558379       0.886243931       0.309727994    3 
    0.571232298       0.901301478       0.690869805    3 
    0.556236351       0.893752851       0.557888119    3 
    0.549017941       0.994602614       0.439636274    3 
    0.559431917       0.999900603       0.305120963    3 
    0.451519794       0.668082172       0.692742228    3 
    0.451691127       0.670940375       0.562972549    3 
    0.775001045       0.111112331       0.439579585    3 
    0.775359483       0.111637139       0.303837667    3 
    0.677248965       0.117682224       0.689215267    3 
    0.666334161       0.109034466       0.554597901    3 
    0.667594277       0.218146858       0.442150706    3 
    0.665442685       0.214343253       0.306960926    3 
    0.901230038       0.224205541       0.687659290    3 
    0.898227825       0.225556935       0.559290520    3 
    0.887820927       0.327497530       0.441948681    3 
    0.887662440       0.334322006       0.311549891    3 
    0.783694185       0.002894069       0.686701004    3 
    0.775091397      -0.000381955       0.551106147    3 
    0.772878776       0.436119064       0.443005498    3 
    0.769301691       0.444583824       0.310764680    3 
    0.666718466       0.441842233       0.695814166    3 
    0.669497662       0.448181910       0.561872602    3 
    0.668573634       0.554851739       0.442734305    3 
    0.664103839       0.554379031       0.311209420    3 
    0.895275442       0.560539006       0.694313366    3 
    0.888384941       0.560200172       0.559592191    3 
    0.886692582       0.663232045       0.436025209    3 
    0.890135480       0.665910944       0.309866325    3 
    0.785936670       0.339547357       0.692989920    3 
    0.780835640       0.341195741       0.560069791    3 
    0.776757865       0.778042049       0.441517508    3 
    0.775838203       0.784151791       0.310181462    3 
    0.678033316       0.790204783       0.692448165    3 
    0.675661644       0.779270600       0.560149426    3 
    0.657107465       0.886756255       0.441835212    3 
    0.661448077       0.888776564       0.305409093    3 
    0.895563716       0.891407860       0.688039091    3 
    0.887179453       0.876437318       0.558747561    3 
    0.886133800       0.997111471       0.439952412    3 
    0.885781021       1.002627722       0.309742990    3 
    0.785866843       0.671751747       0.689126985    3 
    0.776039275       0.659300315       0.558230321    3 
    
    
