 &control
    calculation='scf'
    restart_mode='from_scratch',
    prefix='C60'
    pseudo_dir = '/home/luw/ONCVPSP/abinit/'
    outdir='./tempdir/'
 /
 &system
    ibrav = 1,
    celldm(1) = 42.0,
    nat = 60,
    ntyp = 1,
    ecutwfc = 50,
    ecutrho = 200
 /
 &electrons
    conv_thr =  1.0d-10
 /
ATOMIC_SPECIES
C 12.011  C_ONCV_PBE_sr.upf  
ATOMIC_POSITIONS {angstrom}
C  1.211339800201e+01 1.183975430400e+01 1.444093543601e+01  
C  1.073049086899e+01 1.228908807000e+01 1.444093543601e+01  
C  1.307352033601e+01 1.253732401300e+01 1.370746723901e+01  
C  1.036375677099e+01 1.341777956700e+01 1.370746723901e+01  
C  9.126847028990e+00 1.341777956700e+01 1.294301497801e+01  
C  9.875807257990e+00 1.111271700000e+01 1.444093543601e+01  
C  8.689030785990e+00 1.111271700000e+01 1.370746723901e+01  
C  8.306804655990e+00 1.228908807000e+01 1.294301497801e+01  
C  1.407420133701e+01 1.041514729200e+01 1.294301497801e+01  
C  1.307352033601e+01 9.688109987000e+00 1.370746723901e+01  
C  1.407420133701e+01 1.181028670800e+01 1.294301497801e+01  
C  1.211339800201e+01 1.038567969600e+01 1.444093543601e+01  
C  1.073049086899e+01 9.936345930000e+00 1.444093543601e+01  
C  1.269129420501e+01 8.511738918000e+00 1.294301497801e+01  
C  1.136443777201e+01 8.080617128000e+00 1.294301497801e+01  
C  1.036375677099e+01 8.807654433000e+00 1.370746723901e+01  
C  1.453708421501e+01 1.183975430400e+01 1.051932876399e+01  
C  1.453708421501e+01 1.038567969600e+01 1.051932876399e+01  
C  1.431043007801e+01 1.253732401300e+01 1.170610523601e+01  
C  1.431043007801e+01 9.688109987000e+00 1.170610523601e+01  
C  1.345574646601e+01 8.511738918000e+00 1.170610523601e+01  
C  1.391862934401e+01 9.936345930000e+00 9.282419021990e+00  
C  1.309858697101e+01 8.807654433000e+00 9.282419021990e+00  
C  1.286235823001e+01 8.080617128000e+00 1.051932876399e+01  
C  1.286235823001e+01 1.414481687200e+01 1.051932876399e+01  
C  1.309858697101e+01 1.341777956700e+01 9.282419021990e+00  
C  1.345574646601e+01 1.371369508200e+01 1.170610523601e+01  
C  1.391862934401e+01 1.228908807000e+01 9.282419021990e+00  
C  1.353640321401e+01 1.111271700000e+01 8.517966760990e+00  
C  1.186167722901e+01 1.341777956700e+01 8.517966760990e+00  
C  1.149494313101e+01 1.228908807000e+01 7.784498563990e+00  
C  1.234962674201e+01 1.111271700000e+01 7.784498563990e+00  
C  1.136443777201e+01 1.414481687200e+01 1.294301497801e+01  
C  1.074598290201e+01 1.459415063700e+01 1.170610523601e+01  
C  1.269129420501e+01 1.371369508200e+01 1.294301497801e+01  
C  1.147945109801e+01 1.459415063700e+01 1.051932876399e+01  
C  1.086099622801e+01 1.414481687200e+01 9.282419021990e+00  
C  9.363075769990e+00 1.414481687200e+01 1.170610523601e+01  
C  8.769687533990e+00 1.371369508200e+01 1.051932876399e+01  
C  9.534139794990e+00 1.371369508200e+01 9.282419021990e+00  
C  1.011203599799e+01 1.038567969600e+01 7.784498563990e+00  
C  1.011203599799e+01 1.183975430400e+01 7.784498563990e+00  
C  9.151913663990e+00 1.253732401300e+01 8.517966760990e+00  
C  9.151913663990e+00 9.688109987000e+00 8.517966760990e+00  
C  1.086099622801e+01 8.080617128000e+00 9.282419021990e+00  
C  1.186167722901e+01 8.807654433000e+00 8.517966760990e+00  
C  1.149494313101e+01 9.936345930000e+00 7.784498563990e+00  
C  9.534139794990e+00 8.511738918000e+00 9.282419021990e+00  
C  9.363075769990e+00 8.080617128000e+00 1.170610523601e+01  
C  1.074598290201e+01 7.631283363000e+00 1.170610523601e+01  
C  1.147945109801e+01 7.631283363000e+00 1.051932876399e+01  
C  8.769687533990e+00 8.511738918000e+00 1.051932876399e+01  
C  7.688349784990e+00 1.038567969600e+01 1.170610523601e+01  
C  8.306804655990e+00 9.936345930000e+00 1.294301497801e+01  
C  9.126847028990e+00 8.807654433000e+00 1.294301497801e+01  
C  7.915003921990e+00 9.688109987000e+00 1.051932876399e+01  
C  8.151232662990e+00 1.181028670800e+01 9.282419021990e+00  
C  7.915003921990e+00 1.253732401300e+01 1.051932876399e+01  
C  7.688349784990e+00 1.183975430400e+01 1.170610523601e+01  
C  8.151232662990e+00 1.041514729200e+01 9.282419021990e+00  
K_POINTS {gamma}
