generated by phonopy  
  1.0000000000000
    6.9794106534635487    0.0000000000000000    0.0000000000000000
   -3.4897053267317744    6.0443469293431820    0.0000000000000000
    0.0000000000000000    0.0000000000000000   23.0000000000000000
   Cr   I  
           2           6
cart
    0.0000000000000000    0.0000000000000000   11.5000330856834427
    3.4897052176486270    2.0147824980616589   11.4998177403320518
    5.7511881268687848    1.9020944377983393    9.9016875156307282
    2.4565544867739244    4.0296281779780552    9.9016875156307282
    2.2613730403126606    0.1126248794180247    9.9016875156307282
    4.7180466312410081    0.1129257123408484   13.0983124843692735
    4.5225908024772359    4.0294857592442055   13.0983124843692735
    1.2284782202371496    1.9019360236094081   13.0983124843692735
