Bi4 Se6
1.0
   4.1708278382937189    0.0000000000000000    0.0000000000000000
  -2.0854139191468595    3.6120428629215495    0.0000000000000000
   0.0000000000000000    0.0000000000000000   27.2788373007402996
Bi Se
4 6
direct
   0.8072706028932659    0.9833231329475830    0.2434658450238709 Bi
   0.1310604996332105    0.6475161289721920    0.3896100140117005 Bi
   0.1177229432199779    0.6293655647210109    0.6110812803906063 Bi
   0.4476877021801562    0.2986099356944909    0.7566784104197647 Bi
   0.1421594267720495    0.6482007549016514    0.1832922695669404 Se
   0.4689602279751122    0.3185543924620849    0.3166404920479790 Se
   0.8014972032909908    0.9817803915366187    0.4498396850358298 Se
   0.4484662642650490    0.2997344386548721    0.5512639642591971 Se
   0.7821800991187340    0.9618678286007089    0.6838892043657951 Se
   0.1186586698267721    0.6281725859823607    0.8167077304330596 Se
