 &control
    calculation='scf'
    restart_mode='from_scratch',
    prefix='C6H6'
    pseudo_dir = '/home/luw/ONCVPSP/sg15/'
    outdir='./tempdir/'
 /
 &system
    ibrav = 6,
    celldm(1) = 36.0,
    celldm(3) = 0.8333333,
    nat = 12,
    ntyp = 2,
    ecutwfc = 25,
    ecutrho = 250
 /
 &electrons
    conv_thr =  1.0d-10
 /
ATOMIC_SPECIES
H  1.008  H_ONCV_PBE_sr.upf  
C 12.011  C_ONCV_PBE_sr.upf  
ATOMIC_POSITIONS {angstrom}
C   9.63102523656   11.0337452365   7.40848095120
H   9.63102523656   12.1213152366   7.40848095120
C   8.41623523655   10.3323852365   7.40848095120
H   7.47436523658   10.8761752365   7.40848095120
C   8.41623523655   8.92966523657   7.40848095120
H   7.47436523658   8.38587523658   7.40848095120
C   9.63102523656   8.22830523653   7.40848095120
H   9.63102523656   7.14073523657   7.40848095120
C   10.8458152366   8.92966523657   7.40848095120
H   11.7876852365   8.38587523658   7.40848095120
C   10.8458152366   10.3323852365   7.40848095120
H   11.7876852365   10.8761752365   7.40848095120
K_POINTS {gamma}

