Nb2 Se4
1.0
   3.4635707819465402    0.0000000000000000    0.0000000000000000
  -1.7317853909732701    2.9995402847792536    0.0000000000000000
   0.0000000000000000    0.0000000000000000   19.5104680299785969
Nb Se
2 4
direct
   0.7095458407952574    0.7948292916263487    0.6575101585071643 Nb
   0.7127983921413661    0.7967393320918016    0.3424873597626072 Nb
   0.3795826053613638    0.1300044828358800    0.2562726835828490 Se
   0.0429171237277085    0.4614383061807646    0.5712845138934781 Se
   0.3792387624309392    0.1299213010649377    0.4287153721910359 Se
   0.0426010605397585    0.4614158479847076    0.7437273164171510 Se
