 System = hexagonal Boron Nitride
 Staring parameters
 ISTART = 1
 ICHARG = 1

 Electronic relaxation
 PREC = Accurate
 ENCUT = 350
 ADDGRID = .TRUE.
 ALGO = Fast
 EDIFF = 1E-06
 NELM = 100
 NELMIN = 2
 NELMDL = -5

 Ionic relaxation
 EDIFFG = -0.01
 NSW = 1000
 IBRION = 2
 ISIF = 3
 POTIM = 0.1

 DOS related values
 ISMEAR = 0
 SIGMA = 0.1
 
 LCHARG= .FALSE.
 LWAVE =.FALSE.
  
 Dynamic dielectric
 NBANDS = 128
 NEDOS = 50001
 OMEGAMAX = 50
 LOPTICS = .TRUE.
 
 KPAR = 8

